p tw 126 145
1 2
2 39
3 30
4 5
5 6
6 7
7 8
7 27
8 9
9 10
9 24
10 11
11 12
12 13
13 15
14 25
15 16
15 22
16 17
17 18
18 19
19 20
20 21
21 12
22 23
23 24
24 26
25 32
26 27
27 28
28 29
29 30
30 31
32 33
33 34
34 35
35 36
36 37
37 38
38 40
39 50
40 41
41 42
42 43
43 44
44 45
45 46
46 47
47 48
48 49
49 51
50 61
51 52
52 53
52 85
53 54
54 55
54 101
55 56
56 57
56 93
57 58
58 59
58 73
59 60
60 62
61 72
62 63
62 68
63 64
64 65
64 81
65 66
66 67
66 85
67 108
68 69
69 70
69 27
70 71
71 27
72 83
72 14
73 74
74 75
75 76
76 77
76 27
77 78
78 79
78 27
79 80
80 27
81 82
82 84
83 94
84 27
85 86
86 87
87 88
88 89
89 90
90 91
90 27
91 92
92 27
93 95
94 105
95 96
96 97
97 98
98 99
99 100
100 27
101 102
102 103
103 104
104 106
105 116
106 107
107 27
108 109
109 110
110 111
111 112
111 4
112 113
113 114
113 119
114 115
115 117
115 119
116 3
116 14
117 118
118 27
119 120
120 121
120 27
121 122
122 123
123 124
124 125
125 126
126 27
